p wcnf 227 708
w -2 0.367879 0
w 2 2.718282 0
w -3 0.367879 0
w 3 2.718282 0
w -4 0.367879 0
w 4 2.718282 0
w -5 0.367879 0
w 5 2.718282 0
w -6 0.367879 0
w 6 2.718282 0
w -7 0.367879 0
w 7 2.718282 0
w -9 0.367879 0
w 9 2.718282 0
w -10 0.367879 0
w 10 2.718282 0
w -11 0.367879 0
w 11 2.718282 0
w -12 0.367879 0
w 12 2.718282 0
w -13 0.367879 0
w 13 2.718282 0
w -14 0.367879 0
w 14 2.718282 0
w -15 0.367879 0
w 15 2.718282 0
w -17 0.367879 0
w 17 2.718282 0
w -18 0.367879 0
w 18 2.718282 0
w -19 0.367879 0
w 19 2.718282 0
w -20 0.367879 0
w 20 2.718282 0
w -21 0.367879 0
w 21 2.718282 0
w -22 0.367879 0
w 22 2.718282 0
w -23 0.367879 0
w 23 2.718282 0
w -24 0.367879 0
w 24 2.718282 0
w -25 0.367879 0
w 25 2.718282 0
w -26 0.367879 0
w 26 2.718282 0
w -28 0.367879 0
w 28 2.718282 0
w -29 0.367879 0
w 29 2.718282 0
w -30 0.367879 0
w 30 2.718282 0
w -31 0.367879 0
w 31 2.718282 0
w -32 0.367879 0
w 32 2.718282 0
w -33 0.367879 0
w 33 2.718282 0
w -34 0.367879 0
w 34 2.718282 0
w -35 0.367879 0
w 35 2.718282 0
w -37 0.367879 0
w 37 2.718282 0
w -38 0.367879 0
w 38 2.718282 0
w -39 0.367879 0
w 39 2.718282 0
w -40 0.367879 0
w 40 2.718282 0
w -41 0.367879 0
w 41 2.718282 0
w -42 0.367879 0
w 42 2.718282 0
w -43 0.367879 0
w 43 2.718282 0
w -45 0.367879 0
w 45 2.718282 0
w -46 0.367879 0
w 46 2.718282 0
w -47 0.367879 0
w 47 2.718282 0
w -48 0.367879 0
w 48 2.718282 0
w -49 0.367879 0
w 49 2.718282 0
w -50 0.367879 0
w 50 2.718282 0
w -51 0.367879 0
w 51 2.718282 0
w -53 0.367879 0
w 53 2.718282 0
w -54 0.367879 0
w 54 2.718282 0
w -55 0.367879 0
w 55 2.718282 0
w -56 0.367879 0
w 56 2.718282 0
w -58 0.367879 0
w 58 2.718282 0
w -59 0.367879 0
w 59 2.718282 0
w -60 0.367879 0
w 60 2.718282 0
w -61 0.367879 0
w 61 2.718282 0
w -62 0.367879 0
w 62 2.718282 0
w -63 0.367879 0
w 63 2.718282 0
w -64 0.367879 0
w 64 2.718282 0
w -66 0.367879 0
w 66 2.718282 0
w -67 0.367879 0
w 67 2.718282 0
w -68 0.367879 0
w 68 2.718282 0
w -69 0.367879 0
w 69 2.718282 0
w -70 0.367879 0
w 70 2.718282 0
w -71 0.367879 0
w 71 2.718282 0
w -72 0.367879 0
w 72 2.718282 0
w -73 0.367879 0
w 73 2.718282 0
w -74 0.367879 0
w 74 2.718282 0
w -75 0.367879 0
w 75 2.718282 0
w -77 0.367879 0
w 77 2.718282 0
w -78 0.367879 0
w 78 2.718282 0
w -79 0.367879 0
w 79 2.718282 0
w -80 0.367879 0
w 80 2.718282 0
w -81 0.367879 0
w 81 2.718282 0
w -83 0.367879 0
w 83 2.718282 0
w -84 0.367879 0
w 84 2.718282 0
w -85 0.367879 0
w 85 2.718282 0
w -87 0.367879 0
w 87 2.718282 0
w -88 0.367879 0
w 88 2.718282 0
w -89 0.367879 0
w 89 2.718282 0
w -91 0.367879 0
w 91 2.718282 0
w -92 0.367879 0
w 92 2.718282 0
w -93 0.367879 0
w 93 2.718282 0
w -95 0.367879 0
w 95 2.718282 0
w -96 0.367879 0
w 96 2.718282 0
w -97 0.367879 0
w 97 2.718282 0
w -99 0.367879 0
w 99 2.718282 0
w -100 0.367879 0
w 100 2.718282 0
w -101 0.367879 0
w 101 2.718282 0
w -102 0.367879 0
w 102 2.718282 0
w -103 0.367879 0
w 103 2.718282 0
w -104 0.367879 0
w 104 2.718282 0
w -105 0.367879 0
w 105 2.718282 0
w -106 0.367879 0
w 106 2.718282 0
w -107 0.367879 0
w 107 2.718282 0
w -108 0.367879 0
w 108 2.718282 0
w -110 0.367879 0
w 110 2.718282 0
w -111 0.367879 0
w 111 2.718282 0
w -112 0.367879 0
w 112 2.718282 0
w -113 0.367879 0
w 113 2.718282 0
w -114 0.367879 0
w 114 2.718282 0
w -116 0.367879 0
w 116 2.718282 0
w -117 0.367879 0
w 117 2.718282 0
w -118 0.367879 0
w 118 2.718282 0
w -119 0.367879 0
w 119 2.718282 0
w -120 0.367879 0
w 120 2.718282 0
w -122 0.367879 0
w 122 2.718282 0
w -123 0.367879 0
w 123 2.718282 0
w -124 0.367879 0
w 124 2.718282 0
w -125 0.367879 0
w 125 2.718282 0
w -126 0.367879 0
w 126 2.718282 0
w -127 0.367879 0
w 127 2.718282 0
w -129 0.367879 0
w 129 2.718282 0
w -130 0.367879 0
w 130 2.718282 0
w -131 0.367879 0
w 131 2.718282 0
w -132 0.367879 0
w 132 2.718282 0
w -134 0.367879 0
w 134 2.718282 0
w -135 0.367879 0
w 135 2.718282 0
w -136 0.367879 0
w 136 2.718282 0
w -137 0.367879 0
w 137 2.718282 0
w -139 0.367879 0
w 139 2.718282 0
w -140 0.367879 0
w 140 2.718282 0
w -141 0.367879 0
w 141 2.718282 0
w -142 0.367879 0
w 142 2.718282 0
w -143 0.367879 0
w 143 2.718282 0
w -145 0.367879 0
w 145 2.718282 0
w -146 0.367879 0
w 146 2.718282 0
w -147 0.367879 0
w 147 2.718282 0
w -149 0.367879 0
w 149 2.718282 0
w -150 0.367879 0
w 150 2.718282 0
w -151 0.367879 0
w 151 2.718282 0
w -152 0.367879 0
w 152 2.718282 0
w -154 0.367879 0
w 154 2.718282 0
w -155 0.367879 0
w 155 2.718282 0
w -156 0.367879 0
w 156 2.718282 0
w -158 0.367879 0
w 158 2.718282 0
w -159 0.367879 0
w 159 2.718282 0
w -160 0.367879 0
w 160 2.718282 0
w -162 0.367879 0
w 162 2.718282 0
w -163 0.367879 0
w 163 2.718282 0
w -164 0.367879 0
w 164 2.718282 0
w -165 0.367879 0
w 165 2.718282 0
w -167 0.367879 0
w 167 2.718282 0
w -168 0.367879 0
w 168 2.718282 0
w -169 0.367879 0
w 169 2.718282 0
w -170 0.367879 0
w 170 2.718282 0
w -171 0.367879 0
w 171 2.718282 0
w -172 0.367879 0
w 172 2.718282 0
w -174 0.367879 0
w 174 2.718282 0
w -176 0.367879 0
w 176 2.718282 0
w -177 0.367879 0
w 177 2.718282 0
w -179 0.367879 0
w 179 2.718282 0
w -180 0.367879 0
w 180 2.718282 0
w -182 0.367879 0
w 182 2.718282 0
w -183 0.367879 0
w 183 2.718282 0
w -185 0.367879 0
w 185 2.718282 0
w -186 0.367879 0
w 186 2.718282 0
w -187 0.367879 0
w 187 2.718282 0
w -188 0.367879 0
w 188 2.718282 0
w -189 0.367879 0
w 189 2.718282 0
w -191 0.367879 0
w 191 2.718282 0
w -192 0.367879 0
w 192 2.718282 0
w -193 0.367879 0
w 193 2.718282 0
w -196 0.367879 0
w 196 2.718282 0
w -197 0.367879 0
w 197 2.718282 0
w -198 0.367879 0
w 198 2.718282 0
w -201 0.367879 0
w 201 2.718282 0
w -202 0.367879 0
w 202 2.718282 0
w -204 0.367879 0
w 204 2.718282 0
w -205 0.367879 0
w 205 2.718282 0
w -208 0.367879 0
w 208 2.718282 0
w -211 0.367879 0
w 211 2.718282 0
w -213 0.367879 0
w 213 2.718282 0
w -214 0.367879 0
w 214 2.718282 0
w -216 0.367879 0
w 216 2.718282 0
w -218 0.367879 0
w 218 2.718282 0
w -219 0.367879 0
w 219 2.718282 0
w -221 0.367879 0
w 221 2.718282 0
w -222 0.367879 0
w 222 2.718282 0
w -225 0.367879 0
w 225 2.718282 0
2 1 57 0
2 -1 -57 0
-2 1 -57 0
-2 -1 57 0
3 1 82 0
3 -1 -82 0
-3 1 -82 0
-3 -1 82 0
4 1 133 0
4 -1 -133 0
-4 1 -133 0
-4 -1 133 0
5 1 138 0
5 -1 -138 0
-5 1 -138 0
-5 -1 138 0
6 1 153 0
6 -1 -153 0
-6 1 -153 0
-6 -1 153 0
7 1 190 0
7 -1 -190 0
-7 1 -190 0
-7 -1 190 0
9 8 44 0
9 -8 -44 0
-9 8 -44 0
-9 -8 44 0
10 8 109 0
10 -8 -109 0
-10 8 -109 0
-10 -8 109 0
11 8 138 0
11 -8 -138 0
-11 8 -138 0
-11 -8 138 0
12 8 206 0
12 -8 -206 0
-12 8 -206 0
-12 -8 206 0
13 8 207 0
13 -8 -207 0
-13 8 -207 0
-13 -8 207 0
14 8 215 0
14 -8 -215 0
-14 8 -215 0
-14 -8 215 0
15 8 220 0
15 -8 -220 0
-15 8 -220 0
-15 -8 220 0
17 16 27 0
17 -16 -27 0
-17 16 -27 0
-17 -16 27 0
18 16 36 0
18 -16 -36 0
-18 16 -36 0
-18 -16 36 0
19 16 82 0
19 -16 -82 0
-19 16 -82 0
-19 -16 82 0
20 16 86 0
20 -16 -86 0
-20 16 -86 0
-20 -16 86 0
21 16 133 0
21 -16 -133 0
-21 16 -133 0
-21 -16 133 0
22 16 153 0
22 -16 -153 0
-22 16 -153 0
-22 -16 153 0
23 16 157 0
23 -16 -157 0
-23 16 -157 0
-23 -16 157 0
24 16 175 0
24 -16 -175 0
-24 16 -175 0
-24 -16 175 0
25 16 223 0
25 -16 -223 0
-25 16 -223 0
-25 -16 223 0
26 16 226 0
26 -16 -226 0
-26 16 -226 0
-26 -16 226 0
28 27 65 0
28 -27 -65 0
-28 27 -65 0
-28 -27 65 0
29 27 76 0
29 -27 -76 0
-29 27 -76 0
-29 -27 76 0
30 27 115 0
30 -27 -115 0
-30 27 -115 0
-30 -27 115 0
31 27 133 0
31 -27 -133 0
-31 27 -133 0
-31 -27 133 0
32 27 190 0
32 -27 -190 0
-32 27 -190 0
-32 -27 190 0
33 27 194 0
33 -27 -194 0
-33 27 -194 0
-33 -27 194 0
34 27 206 0
34 -27 -206 0
-34 27 -206 0
-34 -27 206 0
35 27 217 0
35 -27 -217 0
-35 27 -217 0
-35 -27 217 0
37 36 44 0
37 -36 -44 0
-37 36 -44 0
-37 -36 44 0
38 36 76 0
38 -36 -76 0
-38 36 -76 0
-38 -36 76 0
39 36 138 0
39 -36 -138 0
-39 36 -138 0
-39 -36 138 0
40 36 148 0
40 -36 -148 0
-40 36 -148 0
-40 -36 148 0
41 36 190 0
41 -36 -190 0
-41 36 -190 0
-41 -36 190 0
42 36 194 0
42 -36 -194 0
-42 36 -194 0
-42 -36 194 0
43 36 210 0
43 -36 -210 0
-43 36 -210 0
-43 -36 210 0
45 44 98 0
45 -44 -98 0
-45 44 -98 0
-45 -44 98 0
46 44 138 0
46 -44 -138 0
-46 44 -138 0
-46 -44 138 0
47 44 173 0
47 -44 -173 0
-47 44 -173 0
-47 -44 173 0
48 44 209 0
48 -44 -209 0
-48 44 -209 0
-48 -44 209 0
49 44 224 0
49 -44 -224 0
-49 44 -224 0
-49 -44 224 0
50 44 226 0
50 -44 -226 0
-50 44 -226 0
-50 -44 226 0
51 44 227 0
51 -44 -227 0
-51 44 -227 0
-51 -44 227 0
53 52 115 0
53 -52 -115 0
-53 52 -115 0
-53 -52 115 0
54 52 173 0
54 -52 -173 0
-54 52 -173 0
-54 -52 173 0
55 52 195 0
55 -52 -195 0
-55 52 -195 0
-55 -52 195 0
56 52 212 0
56 -52 -212 0
-56 52 -212 0
-56 -52 212 0
58 57 115 0
58 -57 -115 0
-58 57 -115 0
-58 -57 115 0
59 57 148 0
59 -57 -148 0
-59 57 -148 0
-59 -57 148 0
60 57 153 0
60 -57 -153 0
-60 57 -153 0
-60 -57 153 0
61 57 178 0
61 -57 -178 0
-61 57 -178 0
-61 -57 178 0
62 57 212 0
62 -57 -212 0
-62 57 -212 0
-62 -57 212 0
63 57 217 0
63 -57 -217 0
-63 57 -217 0
-63 -57 217 0
64 57 223 0
64 -57 -223 0
-64 57 -223 0
-64 -57 223 0
66 65 76 0
66 -65 -76 0
-66 65 -76 0
-66 -65 76 0
67 65 86 0
67 -65 -86 0
-67 65 -86 0
-67 -65 86 0
68 65 90 0
68 -65 -90 0
-68 65 -90 0
-68 -65 90 0
69 65 133 0
69 -65 -133 0
-69 65 -133 0
-69 -65 133 0
70 65 153 0
70 -65 -153 0
-70 65 -153 0
-70 -65 153 0
71 65 166 0
71 -65 -166 0
-71 65 -166 0
-71 -65 166 0
72 65 184 0
72 -65 -184 0
-72 65 -184 0
-72 -65 184 0
73 65 200 0
73 -65 -200 0
-73 65 -200 0
-73 -65 200 0
74 65 223 0
74 -65 -223 0
-74 65 -223 0
-74 -65 223 0
75 65 224 0
75 -65 -224 0
-75 65 -224 0
-75 -65 224 0
77 76 121 0
77 -76 -121 0
-77 76 -121 0
-77 -76 121 0
78 76 184 0
78 -76 -184 0
-78 76 -184 0
-78 -76 184 0
79 76 203 0
79 -76 -203 0
-79 76 -203 0
-79 -76 203 0
80 76 206 0
80 -76 -206 0
-80 76 -206 0
-80 -76 206 0
81 76 210 0
81 -76 -210 0
-81 76 -210 0
-81 -76 210 0
83 82 115 0
83 -82 -115 0
-83 82 -115 0
-83 -82 115 0
84 82 153 0
84 -82 -153 0
-84 82 -153 0
-84 -82 153 0
85 82 207 0
85 -82 -207 0
-85 82 -207 0
-85 -82 207 0
87 86 148 0
87 -86 -148 0
-87 86 -148 0
-87 -86 148 0
88 86 175 0
88 -86 -175 0
-88 86 -175 0
-88 -86 175 0
89 86 210 0
89 -86 -210 0
-89 86 -210 0
-89 -86 210 0
91 90 153 0
91 -90 -153 0
-91 90 -153 0
-91 -90 153 0
92 90 223 0
92 -90 -223 0
-92 90 -223 0
-92 -90 223 0
93 90 224 0
93 -90 -224 0
-93 90 -224 0
-93 -90 224 0
95 94 173 0
95 -94 -173 0
-95 94 -173 0
-95 -94 173 0
96 94 200 0
96 -94 -200 0
-96 94 -200 0
-96 -94 200 0
97 94 203 0
97 -94 -203 0
-97 94 -203 0
-97 -94 203 0
99 98 121 0
99 -98 -121 0
-99 98 -121 0
-99 -98 121 0
100 98 128 0
100 -98 -128 0
-100 98 -128 0
-100 -98 128 0
101 98 133 0
101 -98 -133 0
-101 98 -133 0
-101 -98 133 0
102 98 138 0
102 -98 -138 0
-102 98 -138 0
-102 -98 138 0
103 98 153 0
103 -98 -153 0
-103 98 -153 0
-103 -98 153 0
104 98 166 0
104 -98 -166 0
-104 98 -166 0
-104 -98 166 0
105 98 173 0
105 -98 -173 0
-105 98 -173 0
-105 -98 173 0
106 98 190 0
106 -98 -190 0
-106 98 -190 0
-106 -98 190 0
107 98 207 0
107 -98 -207 0
-107 98 -207 0
-107 -98 207 0
108 98 224 0
108 -98 -224 0
-108 98 -224 0
-108 -98 224 0
110 109 190 0
110 -109 -190 0
-110 109 -190 0
-110 -109 190 0
111 109 199 0
111 -109 -199 0
-111 109 -199 0
-111 -109 199 0
112 109 220 0
112 -109 -220 0
-112 109 -220 0
-112 -109 220 0
113 109 224 0
113 -109 -224 0
-113 109 -224 0
-113 -109 224 0
114 109 226 0
114 -109 -226 0
-114 109 -226 0
-114 -109 226 0
116 115 121 0
116 -115 -121 0
-116 115 -121 0
-116 -115 121 0
117 115 148 0
117 -115 -148 0
-117 115 -148 0
-117 -115 148 0
118 115 173 0
118 -115 -173 0
-118 115 -173 0
-118 -115 173 0
119 115 203 0
119 -115 -203 0
-119 115 -203 0
-119 -115 203 0
120 115 224 0
120 -115 -224 0
-120 115 -224 0
-120 -115 224 0
122 121 144 0
122 -121 -144 0
-122 121 -144 0
-122 -121 144 0
123 121 166 0
123 -121 -166 0
-123 121 -166 0
-123 -121 166 0
124 121 207 0
124 -121 -207 0
-124 121 -207 0
-124 -121 207 0
125 121 212 0
125 -121 -212 0
-125 121 -212 0
-125 -121 212 0
126 121 224 0
126 -121 -224 0
-126 121 -224 0
-126 -121 224 0
127 121 227 0
127 -121 -227 0
-127 121 -227 0
-127 -121 227 0
129 128 200 0
129 -128 -200 0
-129 128 -200 0
-129 -128 200 0
130 128 203 0
130 -128 -203 0
-130 128 -203 0
-130 -128 203 0
131 128 220 0
131 -128 -220 0
-131 128 -220 0
-131 -128 220 0
132 128 226 0
132 -128 -226 0
-132 128 -226 0
-132 -128 226 0
134 133 181 0
134 -133 -181 0
-134 133 -181 0
-134 -133 181 0
135 133 184 0
135 -133 -184 0
-135 133 -184 0
-135 -133 184 0
136 133 200 0
136 -133 -200 0
-136 133 -200 0
-136 -133 200 0
137 133 224 0
137 -133 -224 0
-137 133 -224 0
-137 -133 224 0
139 138 178 0
139 -138 -178 0
-139 138 -178 0
-139 -138 178 0
140 138 215 0
140 -138 -215 0
-140 138 -215 0
-140 -138 215 0
141 138 220 0
141 -138 -220 0
-141 138 -220 0
-141 -138 220 0
142 138 223 0
142 -138 -223 0
-142 138 -223 0
-142 -138 223 0
143 138 224 0
143 -138 -224 0
-143 138 -224 0
-143 -138 224 0
145 144 166 0
145 -144 -166 0
-145 144 -166 0
-145 -144 166 0
146 144 199 0
146 -144 -199 0
-146 144 -199 0
-146 -144 199 0
147 144 203 0
147 -144 -203 0
-147 144 -203 0
-147 -144 203 0
149 148 184 0
149 -148 -184 0
-149 148 -184 0
-149 -148 184 0
150 148 190 0
150 -148 -190 0
-150 148 -190 0
-150 -148 190 0
151 148 195 0
151 -148 -195 0
-151 148 -195 0
-151 -148 195 0
152 148 199 0
152 -148 -199 0
-152 148 -199 0
-152 -148 199 0
154 153 199 0
154 -153 -199 0
-154 153 -199 0
-154 -153 199 0
155 153 220 0
155 -153 -220 0
-155 153 -220 0
-155 -153 220 0
156 153 226 0
156 -153 -226 0
-156 153 -226 0
-156 -153 226 0
158 157 194 0
158 -157 -194 0
-158 157 -194 0
-158 -157 194 0
159 157 207 0
159 -157 -207 0
-159 157 -207 0
-159 -157 207 0
160 157 226 0
160 -157 -226 0
-160 157 -226 0
-160 -157 226 0
162 161 184 0
162 -161 -184 0
-162 161 -184 0
-162 -161 184 0
163 161 195 0
163 -161 -195 0
-163 161 -195 0
-163 -161 195 0
164 161 224 0
164 -161 -224 0
-164 161 -224 0
-164 -161 224 0
165 161 226 0
165 -161 -226 0
-165 161 -226 0
-165 -161 226 0
167 166 173 0
167 -166 -173 0
-167 166 -173 0
-167 -166 173 0
168 166 190 0
168 -166 -190 0
-168 166 -190 0
-168 -166 190 0
169 166 200 0
169 -166 -200 0
-169 166 -200 0
-169 -166 200 0
170 166 206 0
170 -166 -206 0
-170 166 -206 0
-170 -166 206 0
171 166 209 0
171 -166 -209 0
-171 166 -209 0
-171 -166 209 0
172 166 220 0
172 -166 -220 0
-172 166 -220 0
-172 -166 220 0
174 173 199 0
174 -173 -199 0
-174 173 -199 0
-174 -173 199 0
176 175 184 0
176 -175 -184 0
-176 175 -184 0
-176 -175 184 0
177 175 199 0
177 -175 -199 0
-177 175 -199 0
-177 -175 199 0
179 178 209 0
179 -178 -209 0
-179 178 -209 0
-179 -178 209 0
180 178 210 0
180 -178 -210 0
-180 178 -210 0
-180 -178 210 0
182 181 199 0
182 -181 -199 0
-182 181 -199 0
-182 -181 199 0
183 181 226 0
183 -181 -226 0
-183 181 -226 0
-183 -181 226 0
185 184 190 0
185 -184 -190 0
-185 184 -190 0
-185 -184 190 0
186 184 200 0
186 -184 -200 0
-186 184 -200 0
-186 -184 200 0
187 184 203 0
187 -184 -203 0
-187 184 -203 0
-187 -184 203 0
188 184 220 0
188 -184 -220 0
-188 184 -220 0
-188 -184 220 0
189 184 224 0
189 -184 -224 0
-189 184 -224 0
-189 -184 224 0
191 190 195 0
191 -190 -195 0
-191 190 -195 0
-191 -190 195 0
192 190 199 0
192 -190 -199 0
-192 190 -199 0
-192 -190 199 0
193 190 215 0
193 -190 -215 0
-193 190 -215 0
-193 -190 215 0
196 195 206 0
196 -195 -206 0
-196 195 -206 0
-196 -195 206 0
197 195 207 0
197 -195 -207 0
-197 195 -207 0
-197 -195 207 0
198 195 215 0
198 -195 -215 0
-198 195 -215 0
-198 -195 215 0
201 200 209 0
201 -200 -209 0
-201 200 -209 0
-201 -200 209 0
202 200 215 0
202 -200 -215 0
-202 200 -215 0
-202 -200 215 0
204 203 215 0
204 -203 -215 0
-204 203 -215 0
-204 -203 215 0
205 203 217 0
205 -203 -217 0
-205 203 -217 0
-205 -203 217 0
208 207 223 0
208 -207 -223 0
-208 207 -223 0
-208 -207 223 0
211 210 217 0
211 -210 -217 0
-211 210 -217 0
-211 -210 217 0
213 212 223 0
213 -212 -223 0
-213 212 -223 0
-213 -212 223 0
214 212 226 0
214 -212 -226 0
-214 212 -226 0
-214 -212 226 0
216 215 217 0
216 -215 -217 0
-216 215 -217 0
-216 -215 217 0
218 217 220 0
218 -217 -220 0
-218 217 -220 0
-218 -217 220 0
219 217 224 0
219 -217 -224 0
-219 217 -224 0
-219 -217 224 0
221 220 224 0
221 -220 -224 0
-221 220 -224 0
-221 -220 224 0
222 220 226 0
222 -220 -226 0
-222 220 -226 0
-222 -220 226 0
225 224 226 0
225 -224 -226 0
-225 224 -226 0
-225 -224 226 0
